# Objective value = 6
c_n0n2n4 3
c_n2n4n5 3
y_n0n1 1
y_n1n2 0
y_n0n2 0
y_n1n3 0
y_n0n3 0
y_n1n4 0
y_n0n4 0
y_n1n5 0
y_n0n5 0
y_n2n3 0
y_n2n4 1
y_n2n5 0
y_n3n4 1
y_n3n5 1
y_n4n5 0
pos_n0 4
pos_n1 5
pos_n2 2
pos_n3 0
pos_n4 3
pos_n5 1
z_n2n4 1
z_n0n1 0
z_n0n4 1
z_n0n5 0
z_n1n4 0
z_n1n5 0
z_n4n5 0
z_n2n5 1
z_n0n2 0
z_n3n4 0
z_n2n3 0
